CMD:
./solvers/bin/cadical --plain --no-reduce -t 1600 ./data/cnfs//qspiflash_qflexpress_divfive-p113/qspiflash_qflexpress_divfive-p113.35.cnf

c --- [ banner ] -------------------------------------------------------------
c 
c CaDiCaL SAT Solver
c Copyright (c) 2016-2024
c A. Biere, M. Fleury, N. Froleyks, K. Fazekas, F. Pollitt, T. Faller
c JKU Linz, University of Freiburg, TU Wien
c 
c Version 2.1.3 5296d3d2a9bf48c154ab2acb5e44625776d821bf
c g++ (Gentoo 12.3.1_p20230526 p2) 12.3.1 20230526 -Wall -Wextra -O3 -DNDEBUG
c Sat Aug 9 07:26:21 PDT 2025 Linux cedar2.int.cedar.computecanada.ca 5.14.0-362.24.2.el9_3.x86_64 x86_64
c 
c --- [ limit ] --------------------------------------------------------------
c 
c setting time limit to 1600 seconds real time (due to '-t 1600')
c 
c --- [ parsing input ] ------------------------------------------------------
c 
c reading DIMACS file from './data/cnfs//qspiflash_qflexpress_divfive-p113/qspiflash_qflexpress_divfive-p113.35.cnf'
c opening file to read './data/cnfs//qspiflash_qflexpress_divfive-p113/qspiflash_qflexpress_divfive-p113.35.cnf'
c found 'p cnf 95117 276692' header
c parsed 276692 clauses in 0.04 seconds process time
c 
c --- [ options ] ------------------------------------------------------------
c 
c   --compact=false                (different from default 'true')
c   --decompose=false              (different from default 'true')
c   --deduplicate=false            (different from default 'true')
c   --elim=false                   (different from default 'true')
c   --probe=false                  (different from default 'true')
c   --reduce=false                 (different from default 'true')
c   --subsume=false                (different from default 'true')
c   --ternary=false                (different from default 'true')
c   --transred=false               (different from default 'true')
c   --vivify=false                 (different from default 'true')
c 
c --- [ solving ] ------------------------------------------------------------
c 
c time measured in process time since initialization
c 
c  seconds  reductions  redundant  irredundant
c         MB    restarts       trail       variables
c          level   conflicts       glue         remaining
c 
c *  0.05 46  0 0   0    0    0  0% 0 263259 87235 92%
c {  0.07 47  0 0   0    0    0  0% 0 263259 87235 92%
c i  0.08 48 12 0   0   22   18 17% 3 263259 87234 92%
c i  0.08 48 12 0   0   23   18 16% 3 263259 87229 92%
c i  0.08 48 11 0   0   27   19 15% 3 263259 87226 92%
c i  0.09 48 36 0   0   42   31 18% 10 263259 86953 91%
c i  0.10 48 41 0   4   76   44 21% 10 263259 86832 91%
c i  0.10 48 40 0   5   77   44 21% 10 263259 86831 91%
c i  0.10 48 40 0   6  114   78 22% 8 263259 86789 91%
c i  0.10 48 39 0   6  125   87 22% 8 263259 86749 91%
c i  0.10 48 39 0   6  137   97 22% 7 263259 86739 91%
c i  0.11 48 35 0   6  358  287 22% 6 263259 86731 91%
c i  0.11 48 35 0   6  359  287 22% 6 263259 86725 91%
c i  0.12 48 35 0   6  390  314 22% 6 263259 86724 91%
c i  0.14 48 65 0  14  721  612 23% 6 263259 86723 91%
c i  0.14 48 75 0  14  878  744 24% 5 263259 86722 91%
c }  0.15 48 72 0  16 1001  858 23% 5 263259 86722 91%
c [  0.15 48  0 0  16 1001  858  0% 0 263259 86722 91%
c O  0.16 48 645 0  16 1002  859 93% 2 263259 86722 91%
c i  0.17 48 622 0  16 1069  918 87% 4 263259 86716 91%
c 
c  seconds   reductions  redundant  irredundant
c         MB     restarts       trail       variables
c           level   conflicts       glue         remaining
c 
c i  0.17 48 614 0  16 1108  951 85% 5 263259 86709 91%
c i  0.18 48 596 0  16 1213 1045 81% 5 263259 86702 91%
c i  0.19 48 583 0  16 1305 1124 79% 5 263259 86688 91%
c i  0.21 48 566 0  16 1493 1296 75% 5 263259 86679 91%
c i  0.23 48 558 0  16 1628 1422 73% 6 263259 86675 91%
c i  0.37 48 393 0  17 2538 2255 55% 6 263259 86671 91%
c ]  0.43 49 304 0  17 3003 2654 46% 6 263259 86671 91%
c {  0.43 49 72 0  17 3003 2654 23% 5 263259 86671 91%
c F  0.43 49 72 0  18 3004 2654 23% 5 263259 86671 91%
c i  0.43 49 72 0  18 3004 2654 23% 5 263259 86667 91%
c i  0.43 49 72 0  19 3009 2657 23% 5 263259 86659 91%
c i  0.43 49 71 0  20 3024 2666 23% 5 263259 86319 91%
c i  0.44 49 67 0  20 3110 2736 22% 5 263259 86318 91%
c i  0.44 49 67 0  20 3112 2737 22% 5 263259 86257 91%
c i  0.44 49 66 0  20 3148 2764 22% 5 263259 86248 91%
c i  0.46 49 60 0  22 3329 2921 22% 5 263259 86242 91%
c i  0.47 49 58 0  22 3367 2954 22% 5 263259 86229 91%
c i  0.48 49 55 0  23 3458 3008 21% 5 263259 85925 90%
c i  0.48 49 55 0  23 3481 3022 21% 5 263259 85917 90%
c i  0.48 49 54 0  25 3511 3044 21% 5 263259 85916 90%
c 
c  seconds  reductions  redundant  irredundant
c         MB    restarts       trail       variables
c          level   conflicts       glue         remaining
c 
c i  0.48 49 54 0  25 3512 3044 21% 5 263259 84013 88%
c i  0.48 49 54 0  25 3513 3044 21% 5 263259 83639 88%
c i  0.48 49 54 0  25 3520 3049 21% 5 263259 80938 85%
c i  0.49 49 53 0  25 3531 3057 21% 5 263259 78764 83%
c i  0.49 49 53 0  25 3532 3057 21% 5 263259 78707 83%
c i  0.49 49 53 0  25 3533 3057 21% 5 263259 78701 83%
c i  0.49 49 53 0  25 3534 3057 21% 5 263259 78431 82%
c }  0.49 49 53 0  25 3540 3059 21% 5 263259 76992 81%
c 0  0.49 49 53 0  25 3540 3059 21% 5 263259 76992 81%
c 
c --- [ result ] -------------------------------------------------------------
c 
s UNSATISFIABLE
c 
c --- [ run-time profiling ] -------------------------------------------------
c 
c process time taken by individual solving procedures
c (percentage relative to process time for solving)
c 
c         0.44   99.97% search
c         0.28   62.44% stable
c         0.14   30.99% unstable
c         0.04   10.06% parse
c         0.03    6.53% lucky
c         0.00    0.00% simplify
c   =================================
c         0.44   90.75% solve
c 
c last line shows process time for solving
c (percentage relative to total process time)
c 
c --- [ statistics ] ---------------------------------------------------------
c 
c chronological:              1450        40.96 %  of conflicts
c conflicts:                  3540      7993.37    per second
c decisions:                  8050     18177.01    per second
c fixed:                     18124        19.05 %  of all variables
c learned:                    3354        94.75 %  per conflict
c learned_lits:              80411       100.00 %  learned literals
c minimized:                     0         0.00 %  learned literals
c shrunken:                   8833        10.98 %  learned literals
c minishrunken:              14467        17.99 %  learned literals
c otfs:                         39         1.10 %  of conflict
c propagations:            5822330        13.15 M  per second
c rephased:                      2      1770.00    interval
c restarts:                     25       141.60    interval
c stabilizing:                   1        56.55 %  of conflicts
c subsumed:                    251         0.09 %  of all clauses
c strengthened:                 39         0.01 %  of all clauses
c 
c seconds are measured in process time for solving
c 
c --- [ resources ] ----------------------------------------------------------
c 
c total process time since initialization:         0.49    seconds
c total real time since initialization:            0.49    seconds
c maximum resident set size of process:           46.46    MB
c 
c --- [ shutting down ] ------------------------------------------------------
c 
c exit 20
